unsat
((set-logic NIA)
(declare-fun r!1 () Int)
(declare-fun q!3 () Int)
(declare-fun s!0 () Int)
(declare-fun p!5 () Int)
(declare-fun a!4 () Int)
(declare-fun b!2 () Int)
(proof
(let ((?x782 (* q!3 r!1)))
 (let ((?x41 (* q00 r00)))
 (let ((?x807 (* (- 1) ?x41)))
 (let ((?x37 (* p00 s00)))
 (let ((?x118 (+ ?x37 ?x807 (* (- 1) (* p!5 s!0)) ?x782)))
 (let (($x548 (>= ?x118 0)))
 (let (($x650 (= ?x118 0)))
 (let ((?x261 (* (- 1) ?x782)))
 (let ((?x680 (* p!5 s!0)))
 (let ((?x139 (* (- 1) ?x37)))
 (let ((?x518 (+ ?x139 ?x41 ?x680 ?x261)))
 (let ((?x743 (* a!4 a!4 a!4 p!5 p!5 p!5 q!3 q!3 q!3 s!0 s!0)))
 (let ((?x663 (* a!4 a!4 a!4 p!5 p!5 p!5 p!5 q!3 q!3 s!0 s!0)))
 (let ((?x572 (* a!4 a!4 p!5 p!5 p!5 p!5 q!3 q!3 s!0 s!0 b!2)))
 (let ((?x559 (* a!4 a!4 p!5 p!5 p!5 p!5 p!5 q!3 s!0 s!0 b!2)))
 (let ((?x556 (* a!4 a!4 p!5 p!5 p!5 p!5 p!5 p!5 s!0 s!0 b!2)))
 (let ((?x553 (* a!4 a!4 a!4 p!5 p!5 p!5 p!5 p!5 p!5 r!1 r!1)))
 (let ((?x550 (* a!4 a!4 a!4 p!5 p!5 p!5 p!5 p!5 q!3 r!1 r!1)))
 (let ((?x540 (* a!4 a!4 p!5 p!5 p!5 p!5 q!3 q!3 r!1 s!0 b!2)))
 (let ((?x530 (* a!4 a!4 p!5 p!5 p!5 q!3 q!3 q!3 r!1 s!0 b!2)))
 (let ((?x520 (* a!4 a!4 a!4 p!5 p!5 p!5 p!5 p!5 p!5 s!0 s!0)))
 (let ((?x505 (* a!4 a!4 p!5 p!5 p!5 p!5 p!5 p!5 r!1 s!0 b!2)))
 (let ((?x502 (* a!4 a!4 a!4 p!5 p!5 p!5 p!5 p!5 p!5 r!1 s!0)))
 (let ((?x491 (* a!4 a!4 p!5 p!5 p!5 p!5 p!5 p!5 r!1 r!1 b!2)))
 (let ((?x451 (* a!4 a!4 a!4 p!5 p!5 p!5 p!5 p!5 q!3 s!0 s!0)))
 (let ((?x449 (* a!4 a!4 a!4 p!5 p!5 p!5 q!3 q!3 q!3 r!1 s!0)))
 (let ((?x446 (* a!4 a!4 a!4 p!5 p!5 p!5 p!5 q!3 q!3 r!1 s!0)))
 (let ((?x445 (* a!4 a!4 p!5 p!5 p!5 p!5 p!5 q!3 r!1 s!0 b!2)))
 (let ((?x443 (* a!4 a!4 a!4 p!5 p!5 p!5 p!5 p!5 q!3 r!1 s!0)))
 (let ((?x383 (+ (* (- 1) p!5) q!3)))
 (let ((?x377 (+ (* (- 1) a!4) b!2)))
 (let ((?x281 (+ (* (- 1) r!1) s!0)))
 (let ((?x351 (* ?x281 ?x281 ?x281 ?x377 ?x377 ?x383 ?x383 r!1 r!1 p!5)))
 (let ((?x302 (* a!4 a!4 a!4 p!5 p!5 p!5 p!5 q!3 q!3 r!1 r!1)))
 (let ((?x282 (* a!4 a!4 p!5 p!5 p!5 p!5 p!5 q!3 r!1 r!1 b!2)))
 (let ((?x204 (* a!4 a!4 p!5 p!5 p!5 q!3 q!3 q!3 s!0 s!0 b!2)))
 (let ((?x147 (* a!4 a!4 p!5 p!5 p!5 p!5 q!3 q!3 r!1 r!1 b!2)))
 (let ((?x146 (* a!4 a!4 a!4 p!5 p!5 p!5 q!3 q!3 q!3 r!1 r!1)))
 (let ((?x129 (* a!4 a!4 p!5 p!5 p!5 q!3 q!3 q!3 r!1 r!1 b!2)))
 (let ((?x1356 (+ ?x129 (* (- 1) ?x146) (* (- 3) ?x147) ?x204 (* 3 ?x282) (* 3 ?x302) ?x351 (* 6 ?x443) (* (- 6) ?x445) (* (- 6) ?x446) (* 2 ?x449) (* (- 3) ?x451) (* (- 1) ?x491) (* (- 2) ?x502) (* 2 ?x505) ?x520 (* (- 2) ?x530) (* 6 ?x540) (* (- 3) ?x550) ?x553 (* (- 1) ?x556) (* 3 ?x559) (* (- 3) ?x572) (* 3 ?x663) (* (- 1) ?x743))))
 (let ((?x720 (* ?x1356 ?x518)))
 (let (($x610 (= ?x720 0)))
 (let ((?x698 (* a!4 q!3 q!3 q!3 q!3 q!3 q!3 s!0 s!0 b!2 b!2)))
 (let ((?x510 (* a!4 p!5 q!3 q!3 q!3 q!3 q!3 s!0 s!0 b!2 b!2)))
 (let ((?x606 (* (- 2) (* p!5 q!3 q!3 r!1 s!0 s!0 s!0 s!0 b!2 b!2))))
 (let ((?x434 (* (- 1) (* q!3 q!3 q!3 r!1 r!1 s!0 s!0 s!0 b!2 b!2))))
 (let ((?x483 (* q!3 q!3 q!3 q!3 q!3 q!3 s!0 s!0 b!2 b!2 b!2)))
 (let ((?x359 (* 2 (* q!3 q!3 q!3 r!1 s!0 s!0 s!0 s!0 b!2 b!2))))
 (let ((?x300 (* p!5 p!5 p!5 q!3 q!3 q!3 s!0 s!0 b!2 b!2 b!2)))
 (let ((?x299 (* a!4 p!5 p!5 p!5 q!3 q!3 q!3 s!0 s!0 b!2 b!2)))
 (let ((?x284 (* a!4 p!5 p!5 q!3 q!3 q!3 q!3 s!0 s!0 b!2 b!2)))
 (let ((?x283 (* a!4 a!4 p!5 p!5 q!3 q!3 q!3 q!3 s!0 s!0 b!2)))
 (let ((?x278 (* p!5 p!5 q!3 q!3 q!3 q!3 s!0 s!0 b!2 b!2 b!2)))
 (let ((?x255 (* a!4 a!4 p!5 q!3 q!3 q!3 q!3 q!3 s!0 s!0 b!2)))
 (let ((?x206 (* (- 1) (* q!3 q!3 q!3 s!0 s!0 s!0 s!0 s!0 b!2 b!2))))
 (let ((?x145 (* a!4 a!4 q!3 q!3 q!3 q!3 q!3 q!3 s!0 s!0 b!2)))
 (let ((?x132 (* p!5 q!3 q!3 q!3 q!3 q!3 s!0 s!0 b!2 b!2 b!2)))
 (let ((?x506 (+ (* 3 ?x132) (* (- 1) ?x145) ?x206 ?x204 (* 3 ?x255) (* (- 3) ?x278) (* (- 3) ?x283) (* 6 ?x284) (* (- 2) ?x299) ?x300 ?x359 (* p!5 q!3 q!3 r!1 r!1 s!0 s!0 s!0 b!2 b!2) (* (- 1) ?x483) ?x434 ?x606 (* (- 6) ?x510) (* p!5 q!3 q!3 s!0 s!0 s!0 s!0 s!0 b!2 b!2) (* 2 ?x698))))
 (let ((?x516 (* ?x506 ?x518)))
 (let (($x433 (= ?x516 0)))
 (let (($x517 (not $x433)))
 (let (($x496 (or $x517 (not $x610))))
 (let ((?x327 (+ (* q00 a00 s!0) (* (- 1) (* s00 a00 q!3)) (* (- 1) (* q00 r00 b!2)) (* (- 1) (* p00 b00 s!0)) (* p00 s00 b!2) (* r00 b00 q!3))))
 (let ((?x428 (+ (* r00 b00 p!5) (* q00 a00 r!1) (* p00 s00 a!4) (* (- 1) (* p00 b00 r!1)) (* (- 1) (* s00 a00 p!5)) (* (- 1) (* q00 r00 a!4)))))
 (let ((?x797 (* p!5 b!2)))
 (let ((?x134 (* q00 a00)))
 (let (($x389 (= (+ ?x134 (* (- 1) (* p00 b00)) ?x797 (* (- 1) (* a!4 q!3))) 0)))
 (let ((?x130 (* s00 a00)))
 (let ((?x371 (+ ?x130 (* (- 1) (* r00 b00)) (* r!1 b!2) (* (- 1) (* a!4 s!0)))))
 (let (($x688 (and $x650 (= ?x371 0) $x389 (= ?x428 0) (= ?x327 0) $x496)))
 (let ((?x267 (+ ?x680 ?x139 ?x41 ?x261)))
 (let ((?x336 (* p!5 p!5 p!5 a!4 a!4 a!4 q!3 q!3 q!3 s!0 s!0)))
 (let ((?x273 (* p!5 p!5 p!5 p!5 a!4 a!4 q!3 q!3 b!2 s!0 s!0)))
 (let ((?x788 (* p!5 p!5 p!5 p!5 a!4 a!4 a!4 q!3 q!3 s!0 s!0)))
 (let ((?x767 (* p!5 p!5 p!5 p!5 p!5 a!4 a!4 q!3 b!2 s!0 s!0)))
 (let ((?x590 (* p!5 p!5 p!5 p!5 p!5 a!4 a!4 a!4 q!3 s!0 s!0)))
 (let ((?x596 (* p!5 p!5 p!5 p!5 p!5 p!5 a!4 a!4 b!2 s!0 s!0)))
 (let ((?x394 (* p!5 p!5 p!5 p!5 p!5 p!5 a!4 a!4 a!4 s!0 s!0)))
 (let ((?x375 (* p!5 p!5 p!5 a!4 a!4 q!3 q!3 q!3 b!2 r!1 s!0)))
 (let ((?x766 (* p!5 p!5 p!5 a!4 a!4 a!4 q!3 q!3 q!3 r!1 s!0)))
 (let ((?x786 (* p!5 p!5 p!5 p!5 a!4 a!4 q!3 q!3 b!2 r!1 s!0)))
 (let ((?x1336 (* p!5 p!5 p!5 p!5 a!4 a!4 a!4 q!3 q!3 r!1 s!0)))
 (let ((?x1344 (* p!5 p!5 p!5 p!5 p!5 a!4 a!4 q!3 b!2 r!1 s!0)))
 (let ((?x765 (* p!5 p!5 p!5 p!5 p!5 a!4 a!4 a!4 q!3 r!1 s!0)))
 (let ((?x1349 (* p!5 p!5 p!5 p!5 p!5 p!5 a!4 a!4 b!2 r!1 s!0)))
 (let ((?x1345 (* p!5 p!5 p!5 p!5 p!5 p!5 a!4 a!4 a!4 r!1 s!0)))
 (let ((?x1350 (* p!5 p!5 p!5 a!4 a!4 q!3 q!3 q!3 b!2 r!1 r!1)))
 (let ((?x1352 (* p!5 p!5 p!5 a!4 a!4 a!4 q!3 q!3 q!3 r!1 r!1)))
 (let ((?x707 (* p!5 p!5 p!5 p!5 a!4 a!4 q!3 q!3 b!2 r!1 r!1)))
 (let ((?x1069 (* p!5 p!5 p!5 p!5 a!4 a!4 a!4 q!3 q!3 r!1 r!1)))
 (let ((?x1307 (* p!5 p!5 p!5 p!5 p!5 a!4 a!4 q!3 b!2 r!1 r!1)))
 (let ((?x710 (* p!5 p!5 p!5 p!5 p!5 p!5 a!4 a!4 a!4 r!1 r!1)))
 (let ((?x1314 (* p!5 p!5 p!5 p!5 p!5 p!5 a!4 a!4 b!2 r!1 r!1)))
 (let ((?x1311 (* p!5 p!5 p!5 p!5 p!5 a!4 a!4 a!4 q!3 r!1 r!1)))
 (let ((?x1154 (* p!5 p!5 p!5 a!4 a!4 q!3 q!3 q!3 b!2 s!0 s!0)))
 (let ((?x353 (+ ?x1154 (* (- 3) ?x1311) (* (- 1) ?x1314) ?x710 (* 3 ?x1307) (* 3 ?x1069) (* (- 3) ?x707) (* (- 1) ?x1352) ?x1350 (* (- 2) ?x1345) (* 2 ?x1349) (* 6 ?x765) (* (- 6) ?x1344) (* (- 6) ?x1336) (* 6 ?x786) (* 2 ?x766) (* (- 2) ?x375) ?x394 (* (- 1) ?x596) (* (- 3) ?x590) (* 3 ?x767) (* 3 ?x788) (* (- 3) ?x273) ?x351 (* (- 1) ?x336))))
 (let ((?x164 (* q!3 q!3 q!3 q!3 q!3 q!3 b!2 b!2 b!2 s!0 s!0)))
 (let ((?x489 (* a!4 q!3 q!3 q!3 q!3 q!3 q!3 b!2 b!2 s!0 s!0)))
 (let ((?x704 (* a!4 a!4 q!3 q!3 q!3 q!3 q!3 q!3 b!2 s!0 s!0)))
 (let ((?x1242 (* p!5 q!3 q!3 q!3 q!3 q!3 b!2 b!2 b!2 s!0 s!0)))
 (let ((?x842 (* p!5 a!4 q!3 q!3 q!3 q!3 q!3 b!2 b!2 s!0 s!0)))
 (let ((?x321 (* p!5 a!4 a!4 q!3 q!3 q!3 q!3 q!3 b!2 s!0 s!0)))
 (let ((?x828 (* p!5 p!5 q!3 q!3 q!3 q!3 b!2 b!2 b!2 s!0 s!0)))
 (let ((?x1030 (* p!5 p!5 a!4 q!3 q!3 q!3 q!3 b!2 b!2 s!0 s!0)))
 (let ((?x1309 (* p!5 p!5 a!4 a!4 q!3 q!3 q!3 q!3 b!2 s!0 s!0)))
 (let ((?x763 (* p!5 p!5 p!5 q!3 q!3 q!3 b!2 b!2 b!2 s!0 s!0)))
 (let ((?x853 (* p!5 p!5 p!5 a!4 q!3 q!3 q!3 b!2 b!2 s!0 s!0)))
 (let ((?x1152 (* (- 1) (* q!3 q!3 q!3 b!2 b!2 s!0 s!0 s!0 s!0 s!0))))
 (let ((?x874 (* 2 (* q!3 q!3 q!3 b!2 b!2 r!1 s!0 s!0 s!0 s!0))))
 (let ((?x875 (* (- 2) (* p!5 q!3 q!3 b!2 b!2 r!1 s!0 s!0 s!0 s!0))))
 (let ((?x453 (* (- 1) (* q!3 q!3 q!3 b!2 b!2 r!1 r!1 s!0 s!0 s!0))))
 (let ((?x711 (+ (* p!5 q!3 q!3 b!2 b!2 r!1 r!1 s!0 s!0 s!0) ?x453 ?x875 ?x874 (* p!5 q!3 q!3 b!2 b!2 s!0 s!0 s!0 s!0 s!0) ?x1152 ?x1154 (* (- 2) ?x853) ?x763 (* (- 3) ?x1309) (* 6 ?x1030) (* (- 3) ?x828) (* 3 ?x321) (* (- 6) ?x842) (* 3 ?x1242) (* (- 1) ?x704) (* 2 ?x489) (* (- 1) ?x164))))
 (let ((?x678 (+ (* b!2 q00 r00) (* (- 1) (* b!2 p00 s00)) (* s!0 p00 b00) (* (- 1) (* q!3 r00 b00)) (* q!3 s00 a00) (* (- 1) (* s!0 q00 a00)))))
 (let ((?x1094 (+ (* a!4 p00 s00) (* (- 1) (* a!4 q00 r00)) (* p!5 r00 b00) (* (- 1) (* r!1 p00 b00)) (* (- 1) (* p!5 s00 a00)) (* r!1 q00 a00))))
 (let (($x356 (= (+ (* a!4 q!3) (* (- 1) ?x134) (* p00 b00) (* (- 1) ?x797)) 0)))
 (let ((?x148 (* r00 b00)))
 (let ((?x137 (* (- 1) ?x130)))
 (let ((?x955 (* a!4 s!0)))
 (let (($x437 (and (= ?x267 0) (= (+ ?x955 (* (- 1) (* b!2 r!1)) ?x137 ?x148) 0) $x356 (= ?x1094 0) (= ?x678 0) (or (not (= (* ?x711 ?x267) 0)) (not (= (* ?x353 ?x267) 0))))))
 (let (($x957 (exists ((p Int) (a Int) (q Int) (b Int) (r Int) (s Int) )(! (let ((?x123 (* (- 1) (* q r))))
 (let ((?x41 (* q00 r00)))
 (let ((?x37 (* p00 s00)))
 (let ((?x139 (* (- 1) ?x37)))
 (let ((?x33 (* p s)))
 (let ((?x153 (+ ?x33 ?x139 ?x41 ?x123)))
 (let ((?x1368 (* (- 1) (* p p p a a a q q q s s))))
 (let ((?x340 (* (- 1) p)))
 (let ((?x354 (+ ?x340 q)))
 (let ((?x780 (* (- 1) a)))
 (let ((?x784 (+ ?x780 b)))
 (let ((?x260 (* (- 1) r)))
 (let ((?x272 (+ ?x260 s)))
 (let ((?x1389 (* (- 3) (* p p p p a a q q b s s))))
 (let ((?x1388 (* 3 (* p p p p a a a q q s s))))
 (let ((?x1387 (* 3 (* p p p p p a a q b s s))))
 (let ((?x1386 (* (- 3) (* p p p p p a a a q s s))))
 (let ((?x1262 (* (- 1) (* p p p p p p a a b s s))))
 (let ((?x1250 (* p p p p p p a a a s s)))
 (let ((?x1385 (* (- 2) (* p p p a a q q q b r s))))
 (let ((?x1384 (* 2 (* p p p a a a q q q r s))))
 (let ((?x1383 (* 6 (* p p p p a a q q b r s))))
 (let ((?x1382 (* (- 6) (* p p p p a a a q q r s))))
 (let ((?x1381 (* (- 6) (* p p p p p a a q b r s))))
 (let ((?x1380 (* 6 (* p p p p p a a a q r s))))
 (let ((?x1379 (* 2 (* p p p p p p a a b r s))))
 (let ((?x1378 (* (- 2) (* p p p p p p a a a r s))))
 (let ((?x990 (* p p p a a q q q b r r)))
 (let ((?x984 (* (- 1) (* p p p a a a q q q r r))))
 (let ((?x1377 (* (- 3) (* p p p p a a q q b r r))))
 (let ((?x1376 (* 3 (* p p p p a a a q q r r))))
 (let ((?x1375 (* 3 (* p p p p p a a q b r r))))
 (let ((?x818 (* p p p p p p a a a r r)))
 (let ((?x806 (* (- 1) (* p p p p p p a a b r r))))
 (let ((?x1374 (* (- 3) (* p p p p p a a a q r r))))
 (let ((?x477 (* p p p a a q q q b s s)))
 (let ((?x333 (+ ?x477 ?x1374 ?x806 ?x818 ?x1375 ?x1376 ?x1377 ?x984 ?x990 ?x1378 ?x1379 ?x1380 ?x1381 ?x1382 ?x1383 ?x1384 ?x1385 ?x1250 ?x1262 ?x1386 ?x1387 ?x1388 ?x1389 (* ?x272 ?x272 ?x272 ?x784 ?x784 ?x354 ?x354 r r p) ?x1368)))
 (let ((?x721 (* (- 1) (* q q q q q q b b b s s))))
 (let ((?x738 (* 2 (* a q q q q q q b b s s))))
 (let ((?x696 (* (- 1) (* a a q q q q q q b s s))))
 (let ((?x737 (* 3 (* p q q q q q b b b s s))))
 (let ((?x736 (* (- 6) (* p a q q q q q b b s s))))
 (let ((?x734 (* 3 (* p a a q q q q q b s s))))
 (let ((?x732 (* (- 3) (* p p q q q q b b b s s))))
 (let ((?x731 (* 6 (* p p a q q q q b b s s))))
 (let ((?x729 (* (- 3) (* p p a a q q q q b s s))))
 (let ((?x727 (* (- 2) (* p p p a q q q b b s s))))
 (let ((?x749 (+ (* p q q b b r r s s s) (* (- 1) (* q q q b b r r s s s)) (* (- 2) (* p q q b b r s s s s)) (* 2 (* q q q b b r s s s s)) (* p q q b b s s s s s) (* (- 1) (* q q q b b s s s s s)) ?x477 ?x727 (* p p p q q q b b b s s) ?x729 ?x731 ?x732 ?x734 ?x736 ?x737 ?x696 ?x738 ?x721)))
 (let ((?x72 (* b q00 r00)))
 (let ((?x310 (+ ?x72 (* (- 1) (* b p00 s00)) (* s p00 b00) (* (- 1) (* q r00 b00)) (* q s00 a00) (* (- 1) (* s q00 a00)))))
 (let (($x315 (= ?x310 0)))
 (let ((?x63 (* a p00 s00)))
 (let ((?x246 (+ ?x63 (* (- 1) (* a q00 r00)) (* p r00 b00) (* (- 1) (* r p00 b00)) (* (- 1) (* p s00 a00)) (* r q00 a00))))
 (let (($x247 (= ?x246 0)))
 (let ((?x135 (* p00 b00)))
 (let ((?x134 (* q00 a00)))
 (let ((?x178 (* (- 1) ?x134)))
 (let (($x181 (= (+ (* a q) ?x178 ?x135 (* (- 1) (* p b))) 0)))
 (let ((?x148 (* r00 b00)))
 (let ((?x130 (* s00 a00)))
 (let ((?x137 (* (- 1) ?x130)))
 (let ((?x49 (* a s)))
 (let (($x163 (= (+ ?x49 (* (- 1) (* b r)) ?x137 ?x148) 0)))
 (let (($x158 (= ?x153 0)))
 (and $x158 $x163 $x181 $x247 $x315 (or (not (= (* ?x749 ?x153) 0)) (not (= (* ?x333 ?x153) 0)))))))))))))))))))))))))))))))))))))))))))))))))))))))))))))))))))) :qid k!39))
 ))
 (let (($x526 (exists ((p Int) (a Int) (q Int) (b Int) (r Int) (s Int) )(! (let ((?x41 (* q00 r00)))
 (let ((?x37 (* p00 s00)))
 (let ((?x139 (* (- 1) ?x37)))
 (let ((?x902 (+ (* (- 1) (* (+ q (* (- 1) p)) r)) (* (+ s (* (- 1) r)) p) ?x139 ?x41)))
 (let ((?x340 (* (- 1) p)))
 (let ((?x794 (+ q ?x340)))
 (let ((?x780 (* (- 1) a)))
 (let ((?x921 (+ b ?x780)))
 (let ((?x260 (* (- 1) r)))
 (let ((?x805 (+ s ?x260)))
 (let ((?x880 (+ (* ?x805 ?x805 ?x805 ?x921 ?x921 ?x794 ?x794 r r p) (* ?x805 ?x805 ?x921 ?x794 ?x794 ?x794 a a p p p))))
 (let ((?x803 (+ (* (- 1) (* (+ r (* (- 1) s)) q)) (* (+ p (* (- 1) q)) s) ?x139 ?x41)))
 (let ((?x796 (+ p (* (- 1) q))))
 (let ((?x907 (+ a (* (- 1) b))))
 (let ((?x256 (* (- 1) s)))
 (let ((?x440 (+ r ?x256)))
 (let ((?x883 (+ (* ?x440 ?x440 ?x796 s s s b b q q) (* ?x907 ?x907 ?x796 ?x796 ?x796 s s b q q q))))
 (let (($x925 (or (not (= (* ?x883 ?x803) 0)) (not (= (* ?x880 ?x902) 0)))))
 (let ((?x73 (* b00 p00 s)))
 (let ((?x893 (+ (* q00 r00 b) ?x73 (* (- 1) (* b00 r00 q)) (* (- 1) (* p00 s00 b)) (* a00 s00 q) (* (- 1) (* a00 q00 s)))))
 (let (($x885 (= ?x893 0)))
 (let ((?x69 (* a00 q00 r)))
 (let ((?x644 (* p00 s00 a)))
 (let ((?x1125 (* b00 r00 p)))
 (let ((?x987 (+ ?x1125 ?x644 (* (- 1) (* b00 p00 r)) (* (- 1) (* q00 r00 a)) (* (- 1) (* a00 s00 p)) ?x69)))
 (let ((?x57 (* b00 p00)))
 (let ((?x324 (* q a)))
 (let (($x912 (= (+ ?x324 (* (- 1) (* a00 q00)) ?x57 (* (- 1) (* b p))) 0)))
 (let ((?x47 (* a00 s00)))
 (let ((?x317 (* r b)))
 (let (($x793 (= (+ ?x317 ?x47 (* (- 1) (* s a)) (* (- 1) (* b00 r00))) 0)))
 (let (($x535 (= (+ (* r q) (* (- 1) (* s p)) ?x37 (* (- 1) ?x41)) 0)))
 (and $x535 $x793 $x912 (= ?x987 0) $x885 $x925))))))))))))))))))))))))))))))))) :qid k!39))
 ))
 (let ((?x962 (lambda ((p Int) (a Int) (q Int) (b Int) (r Int) (s Int) )(let ((?x123 (* (- 1) (* q r))))
 (let ((?x41 (* q00 r00)))
 (let ((?x37 (* p00 s00)))
 (let ((?x139 (* (- 1) ?x37)))
 (let ((?x33 (* p s)))
 (let ((?x153 (+ ?x33 ?x139 ?x41 ?x123)))
 (let ((?x1368 (* (- 1) (* p p p a a a q q q s s))))
 (let ((?x340 (* (- 1) p)))
 (let ((?x354 (+ ?x340 q)))
 (let ((?x780 (* (- 1) a)))
 (let ((?x784 (+ ?x780 b)))
 (let ((?x260 (* (- 1) r)))
 (let ((?x272 (+ ?x260 s)))
 (let ((?x1389 (* (- 3) (* p p p p a a q q b s s))))
 (let ((?x1388 (* 3 (* p p p p a a a q q s s))))
 (let ((?x1387 (* 3 (* p p p p p a a q b s s))))
 (let ((?x1386 (* (- 3) (* p p p p p a a a q s s))))
 (let ((?x1262 (* (- 1) (* p p p p p p a a b s s))))
 (let ((?x1250 (* p p p p p p a a a s s)))
 (let ((?x1385 (* (- 2) (* p p p a a q q q b r s))))
 (let ((?x1384 (* 2 (* p p p a a a q q q r s))))
 (let ((?x1383 (* 6 (* p p p p a a q q b r s))))
 (let ((?x1382 (* (- 6) (* p p p p a a a q q r s))))
 (let ((?x1381 (* (- 6) (* p p p p p a a q b r s))))
 (let ((?x1380 (* 6 (* p p p p p a a a q r s))))
 (let ((?x1379 (* 2 (* p p p p p p a a b r s))))
 (let ((?x1378 (* (- 2) (* p p p p p p a a a r s))))
 (let ((?x990 (* p p p a a q q q b r r)))
 (let ((?x984 (* (- 1) (* p p p a a a q q q r r))))
 (let ((?x1377 (* (- 3) (* p p p p a a q q b r r))))
 (let ((?x1376 (* 3 (* p p p p a a a q q r r))))
 (let ((?x1375 (* 3 (* p p p p p a a q b r r))))
 (let ((?x818 (* p p p p p p a a a r r)))
 (let ((?x806 (* (- 1) (* p p p p p p a a b r r))))
 (let ((?x1374 (* (- 3) (* p p p p p a a a q r r))))
 (let ((?x477 (* p p p a a q q q b s s)))
 (let ((?x333 (+ ?x477 ?x1374 ?x806 ?x818 ?x1375 ?x1376 ?x1377 ?x984 ?x990 ?x1378 ?x1379 ?x1380 ?x1381 ?x1382 ?x1383 ?x1384 ?x1385 ?x1250 ?x1262 ?x1386 ?x1387 ?x1388 ?x1389 (* ?x272 ?x272 ?x272 ?x784 ?x784 ?x354 ?x354 r r p) ?x1368)))
 (let ((?x721 (* (- 1) (* q q q q q q b b b s s))))
 (let ((?x738 (* 2 (* a q q q q q q b b s s))))
 (let ((?x696 (* (- 1) (* a a q q q q q q b s s))))
 (let ((?x737 (* 3 (* p q q q q q b b b s s))))
 (let ((?x736 (* (- 6) (* p a q q q q q b b s s))))
 (let ((?x734 (* 3 (* p a a q q q q q b s s))))
 (let ((?x732 (* (- 3) (* p p q q q q b b b s s))))
 (let ((?x731 (* 6 (* p p a q q q q b b s s))))
 (let ((?x729 (* (- 3) (* p p a a q q q q b s s))))
 (let ((?x727 (* (- 2) (* p p p a q q q b b s s))))
 (let ((?x749 (+ (* p q q b b r r s s s) (* (- 1) (* q q q b b r r s s s)) (* (- 2) (* p q q b b r s s s s)) (* 2 (* q q q b b r s s s s)) (* p q q b b s s s s s) (* (- 1) (* q q q b b s s s s s)) ?x477 ?x727 (* p p p q q q b b b s s) ?x729 ?x731 ?x732 ?x734 ?x736 ?x737 ?x696 ?x738 ?x721)))
 (let ((?x72 (* b q00 r00)))
 (let ((?x310 (+ ?x72 (* (- 1) (* b p00 s00)) (* s p00 b00) (* (- 1) (* q r00 b00)) (* q s00 a00) (* (- 1) (* s q00 a00)))))
 (let (($x315 (= ?x310 0)))
 (let ((?x63 (* a p00 s00)))
 (let ((?x246 (+ ?x63 (* (- 1) (* a q00 r00)) (* p r00 b00) (* (- 1) (* r p00 b00)) (* (- 1) (* p s00 a00)) (* r q00 a00))))
 (let (($x247 (= ?x246 0)))
 (let ((?x135 (* p00 b00)))
 (let ((?x134 (* q00 a00)))
 (let ((?x178 (* (- 1) ?x134)))
 (let (($x181 (= (+ (* a q) ?x178 ?x135 (* (- 1) (* p b))) 0)))
 (let ((?x148 (* r00 b00)))
 (let ((?x130 (* s00 a00)))
 (let ((?x137 (* (- 1) ?x130)))
 (let ((?x49 (* a s)))
 (let (($x163 (= (+ ?x49 (* (- 1) (* b r)) ?x137 ?x148) 0)))
 (let (($x158 (= ?x153 0)))
 (let (($x1476 (and $x158 $x163 $x181 $x247 $x315 (or (not (= (* ?x749 ?x153) 0)) (not (= (* ?x333 ?x153) 0))))))
 (let ((?x902 (+ (* (- 1) (* (+ q ?x340) r)) (* (+ s ?x260) p) ?x139 ?x41)))
 (let ((?x794 (+ q ?x340)))
 (let ((?x921 (+ b ?x780)))
 (let ((?x805 (+ s ?x260)))
 (let ((?x880 (+ (* ?x805 ?x805 ?x805 ?x921 ?x921 ?x794 ?x794 r r p) (* ?x805 ?x805 ?x921 ?x794 ?x794 ?x794 a a p p p))))
 (let ((?x803 (+ (* (- 1) (* (+ r (* (- 1) s)) q)) (* (+ p (* (- 1) q)) s) ?x139 ?x41)))
 (let ((?x796 (+ p (* (- 1) q))))
 (let ((?x907 (+ a (* (- 1) b))))
 (let ((?x256 (* (- 1) s)))
 (let ((?x440 (+ r ?x256)))
 (let ((?x883 (+ (* ?x440 ?x440 ?x796 s s s b b q q) (* ?x907 ?x907 ?x796 ?x796 ?x796 s s b q q q))))
 (let (($x925 (or (not (= (* ?x883 ?x803) 0)) (not (= (* ?x880 ?x902) 0)))))
 (let ((?x73 (* b00 p00 s)))
 (let ((?x893 (+ (* q00 r00 b) ?x73 (* (- 1) (* b00 r00 q)) (* (- 1) (* p00 s00 b)) (* a00 s00 q) (* (- 1) (* a00 q00 s)))))
 (let (($x885 (= ?x893 0)))
 (let ((?x69 (* a00 q00 r)))
 (let ((?x644 (* p00 s00 a)))
 (let ((?x1125 (* b00 r00 p)))
 (let ((?x987 (+ ?x1125 ?x644 (* (- 1) (* b00 p00 r)) (* (- 1) (* q00 r00 a)) (* (- 1) (* a00 s00 p)) ?x69)))
 (let ((?x57 (* b00 p00)))
 (let ((?x324 (* q a)))
 (let (($x912 (= (+ ?x324 (* (- 1) (* a00 q00)) ?x57 (* (- 1) (* b p))) 0)))
 (let ((?x47 (* a00 s00)))
 (let ((?x317 (* r b)))
 (let (($x793 (= (+ ?x317 ?x47 (* (- 1) (* s a)) (* (- 1) (* b00 r00))) 0)))
 (let (($x535 (= (+ (* r q) (* (- 1) (* s p)) ?x37 (* (- 1) ?x41)) 0)))
 (let (($x751 (and $x535 $x793 $x912 (= ?x987 0) $x885 $x925)))
 (rewrite (= $x751 $x1476)))))))))))))))))))))))))))))))))))))))))))))))))))))))))))))))))))))))))))))))))))))))))))))))
 ))
 (let (($x815 (exists ((p Int) (a Int) (q Int) (b Int) (r Int) (s Int) )(! (let ((?x41 (* q00 r00)))
 (let ((?x37 (* p00 s00)))
 (let ((?x139 (* (- 1) ?x37)))
 (let ((?x902 (+ (* (- 1) (* (+ q (* (- 1) p)) r)) (* (+ s (* (- 1) r)) p) ?x139 ?x41)))
 (let ((?x340 (* (- 1) p)))
 (let ((?x794 (+ q ?x340)))
 (let ((?x780 (* (- 1) a)))
 (let ((?x921 (+ b ?x780)))
 (let ((?x260 (* (- 1) r)))
 (let ((?x805 (+ s ?x260)))
 (let ((?x880 (+ (* ?x805 ?x805 ?x805 ?x921 ?x921 ?x794 ?x794 r r p) (* ?x805 ?x805 ?x921 ?x794 ?x794 ?x794 a a p p p))))
 (let ((?x803 (+ (* (- 1) (* (+ r (* (- 1) s)) q)) (* (+ p (* (- 1) q)) s) ?x139 ?x41)))
 (let ((?x796 (+ p (* (- 1) q))))
 (let ((?x907 (+ a (* (- 1) b))))
 (let ((?x256 (* (- 1) s)))
 (let ((?x440 (+ r ?x256)))
 (let ((?x883 (+ (* ?x440 ?x440 ?x796 s s s b b q q) (* ?x907 ?x907 ?x796 ?x796 ?x796 s s b q q q))))
 (let (($x925 (or (not (= (* ?x883 ?x803) 0)) (not (= (* ?x880 ?x902) 0)))))
 (let ((?x73 (* b00 p00 s)))
 (let ((?x893 (+ (* q00 r00 b) ?x73 (* (- 1) (* b00 r00 q)) (* (- 1) (* p00 s00 b)) (* a00 s00 q) (* (- 1) (* a00 q00 s)))))
 (let (($x885 (= ?x893 0)))
 (let ((?x398 (* a00 s00 p)))
 (let ((?x1135 (* q00 r00 a)))
 (let ((?x65 (* b00 p00 r)))
 (let ((?x632 (+ (* (- 1) (* b00 r00 p)) (* (- 1) (* p00 s00 a)) ?x65 ?x1135 ?x398 (* (- 1) (* a00 q00 r)))))
 (let ((?x59 (* b p)))
 (let ((?x55 (* a00 q00)))
 (let (($x127 (= (+ (* (- 1) (* q a)) ?x55 (* (- 1) (* b00 p00)) ?x59) 0)))
 (let ((?x51 (* b00 r00)))
 (let ((?x744 (* s a)))
 (let (($x1054 (= (+ (* (- 1) (* r b)) (* (- 1) (* a00 s00)) ?x744 ?x51) 0)))
 (and (= (+ (* (- 1) (* r q)) (* s p) ?x139 ?x41) 0) $x1054 $x127 (= ?x632 0) $x885 $x925)))))))))))))))))))))))))))))))) :qid k!39))
 ))
 (let ((?x888 (lambda ((p Int) (a Int) (q Int) (b Int) (r Int) (s Int) )(let ((?x41 (* q00 r00)))
 (let ((?x37 (* p00 s00)))
 (let ((?x139 (* (- 1) ?x37)))
 (let ((?x902 (+ (* (- 1) (* (+ q (* (- 1) p)) r)) (* (+ s (* (- 1) r)) p) ?x139 ?x41)))
 (let ((?x340 (* (- 1) p)))
 (let ((?x794 (+ q ?x340)))
 (let ((?x780 (* (- 1) a)))
 (let ((?x921 (+ b ?x780)))
 (let ((?x260 (* (- 1) r)))
 (let ((?x805 (+ s ?x260)))
 (let ((?x880 (+ (* ?x805 ?x805 ?x805 ?x921 ?x921 ?x794 ?x794 r r p) (* ?x805 ?x805 ?x921 ?x794 ?x794 ?x794 a a p p p))))
 (let ((?x803 (+ (* (- 1) (* (+ r (* (- 1) s)) q)) (* (+ p (* (- 1) q)) s) ?x139 ?x41)))
 (let ((?x796 (+ p (* (- 1) q))))
 (let ((?x907 (+ a (* (- 1) b))))
 (let ((?x256 (* (- 1) s)))
 (let ((?x440 (+ r ?x256)))
 (let ((?x883 (+ (* ?x440 ?x440 ?x796 s s s b b q q) (* ?x907 ?x907 ?x796 ?x796 ?x796 s s b q q q))))
 (let (($x925 (or (not (= (* ?x883 ?x803) 0)) (not (= (* ?x880 ?x902) 0)))))
 (let ((?x73 (* b00 p00 s)))
 (let ((?x893 (+ (* q00 r00 b) ?x73 (* (- 1) (* b00 r00 q)) (* (- 1) (* p00 s00 b)) (* a00 s00 q) (* (- 1) (* a00 q00 s)))))
 (let (($x885 (= ?x893 0)))
 (let ((?x69 (* a00 q00 r)))
 (let ((?x644 (* p00 s00 a)))
 (let ((?x1125 (* b00 r00 p)))
 (let ((?x987 (+ ?x1125 ?x644 (* (- 1) (* b00 p00 r)) (* (- 1) (* q00 r00 a)) (* (- 1) (* a00 s00 p)) ?x69)))
 (let ((?x57 (* b00 p00)))
 (let ((?x324 (* q a)))
 (let (($x912 (= (+ ?x324 (* (- 1) (* a00 q00)) ?x57 (* (- 1) (* b p))) 0)))
 (let ((?x47 (* a00 s00)))
 (let ((?x317 (* r b)))
 (let (($x793 (= (+ ?x317 ?x47 (* (- 1) (* s a)) (* (- 1) (* b00 r00))) 0)))
 (let (($x535 (= (+ (* r q) (* (- 1) (* s p)) ?x37 (* (- 1) ?x41)) 0)))
 (let (($x751 (and $x535 $x793 $x912 (= ?x987 0) $x885 $x925)))
 (let ((?x398 (* a00 s00 p)))
 (let ((?x1135 (* q00 r00 a)))
 (let ((?x65 (* b00 p00 r)))
 (let (($x614 (= (+ (* (- 1) ?x1125) (* (- 1) ?x644) ?x65 ?x1135 ?x398 (* (- 1) ?x69)) 0)))
 (let (($x127 (= (+ (* (- 1) ?x324) (* a00 q00) (* (- 1) ?x57) (* b p)) 0)))
 (let (($x1054 (= (+ (* (- 1) ?x317) (* (- 1) ?x47) (* s a) (* b00 r00)) 0)))
 (let (($x911 (and (= (+ (* (- 1) (* r q)) (* s p) ?x139 ?x41) 0) $x1054 $x127 $x614 $x885 $x925)))
 (rewrite (= $x911 $x751)))))))))))))))))))))))))))))))))))))))))))
 ))
 (let (($x114 (exists ((p Int) (a Int) (q Int) (b Int) (r Int) (s Int) )(! (let ((?x100 (- s r)))
 (let ((?x98 (- q p)))
 (let ((?x105 (- b a)))
 (let ((?x108 (+ (* ?x105 ?x105 p ?x98 ?x98 r r ?x100 ?x100 ?x100) (* a a ?x105 p p p ?x98 ?x98 ?x98 ?x100 ?x100))))
 (let ((?x41 (* q00 r00)))
 (let ((?x104 (+ (- (+ (* (- 1) ?x98 r) (* p ?x100)) (* p00 s00)) ?x41)))
 (let ((?x86 (- p q)))
 (let ((?x92 (- a b)))
 (let ((?x84 (- r s)))
 (let ((?x94 (+ (* b b ?x86 q q ?x84 ?x84 s s s) (* ?x92 ?x92 b ?x86 ?x86 ?x86 q q q s s))))
 (let ((?x90 (+ (- (+ (* (- 1) q ?x84) (* ?x86 s)) (* p00 s00)) ?x41)))
 (let ((?x81 (* a00 q00 s)))
 (let ((?x76 (* b p00 s00)))
 (let ((?x77 (- (+ (* b q00 r00) (* b00 p00 s)) (* b00 q r00))))
 (let ((?x69 (* a00 q00 r)))
 (let ((?x66 (* a q00 r00)))
 (let ((?x65 (* b00 p00 r)))
 (let ((?x68 (+ (- (* (- 1) b00 p r00) (* a p00 s00)) ?x65 ?x66 (* a00 p s00))))
 (let ((?x59 (* b p)))
 (let ((?x60 (+ (- (+ (* (- 1) a q) (* a00 q00)) (* b00 p00)) ?x59)))
 (let ((?x51 (* b00 r00)))
 (let ((?x49 (* a s)))
 (let (($x53 (= (+ (- (* (- 1) b r) (* a00 s00)) ?x49 ?x51) 0)))
 (let ((?x42 (+ (- (+ (* (- 1) q r) (* p s)) (* p00 s00)) ?x41)))
 (and (= ?x42 0) $x53 (= ?x60 0) (= (- ?x68 ?x69) 0) (= (- (+ (- ?x77 ?x76) (* a00 q s00)) ?x81) 0) (or (not (= (* ?x90 ?x94) 0)) (not (= (* ?x104 ?x108) 0)))))))))))))))))))))))))))) :qid k!39))
 ))
 (let ((?x992 (lambda ((p Int) (a Int) (q Int) (b Int) (r Int) (s Int) )(let ((?x41 (* q00 r00)))
 (let ((?x37 (* p00 s00)))
 (let ((?x139 (* (- 1) ?x37)))
 (let ((?x902 (+ (* (- 1) (* (+ q (* (- 1) p)) r)) (* (+ s (* (- 1) r)) p) ?x139 ?x41)))
 (let ((?x340 (* (- 1) p)))
 (let ((?x794 (+ q ?x340)))
 (let ((?x780 (* (- 1) a)))
 (let ((?x921 (+ b ?x780)))
 (let ((?x260 (* (- 1) r)))
 (let ((?x805 (+ s ?x260)))
 (let ((?x880 (+ (* ?x805 ?x805 ?x805 ?x921 ?x921 ?x794 ?x794 r r p) (* ?x805 ?x805 ?x921 ?x794 ?x794 ?x794 a a p p p))))
 (let ((?x803 (+ (* (- 1) (* (+ r (* (- 1) s)) q)) (* (+ p (* (- 1) q)) s) ?x139 ?x41)))
 (let ((?x796 (+ p (* (- 1) q))))
 (let ((?x907 (+ a (* (- 1) b))))
 (let ((?x256 (* (- 1) s)))
 (let ((?x440 (+ r ?x256)))
 (let ((?x883 (+ (* ?x440 ?x440 ?x796 s s s b b q q) (* ?x907 ?x907 ?x796 ?x796 ?x796 s s b q q q))))
 (let (($x925 (or (not (= (* ?x883 ?x803) 0)) (not (= (* ?x880 ?x902) 0)))))
 (let ((?x73 (* b00 p00 s)))
 (let ((?x893 (+ (* q00 r00 b) ?x73 (* (- 1) (* b00 r00 q)) (* (- 1) (* p00 s00 b)) (* a00 s00 q) (* (- 1) (* a00 q00 s)))))
 (let (($x885 (= ?x893 0)))
 (let ((?x398 (* a00 s00 p)))
 (let ((?x1135 (* q00 r00 a)))
 (let ((?x65 (* b00 p00 r)))
 (let ((?x632 (+ (* (- 1) (* b00 r00 p)) (* (- 1) (* p00 s00 a)) ?x65 ?x1135 ?x398 (* (- 1) (* a00 q00 r)))))
 (let ((?x59 (* b p)))
 (let ((?x55 (* a00 q00)))
 (let (($x127 (= (+ (* (- 1) (* q a)) ?x55 (* (- 1) (* b00 p00)) ?x59) 0)))
 (let ((?x51 (* b00 r00)))
 (let ((?x744 (* s a)))
 (let (($x1054 (= (+ (* (- 1) (* r b)) (* (- 1) (* a00 s00)) ?x744 ?x51) 0)))
 (let (($x911 (and (= (+ (* (- 1) (* r q)) (* s p) ?x139 ?x41) 0) $x1054 $x127 (= ?x632 0) $x885 $x925)))
 (let ((?x100 (- s r)))
 (let ((?x98 (- q p)))
 (let ((?x105 (- b a)))
 (let ((?x108 (+ (* ?x105 ?x105 p ?x98 ?x98 r r ?x100 ?x100 ?x100) (* a a ?x105 p p p ?x98 ?x98 ?x98 ?x100 ?x100))))
 (let ((?x109 (* (+ (- (+ (* (- 1) ?x98 r) (* p ?x100)) ?x37) ?x41) ?x108)))
 (let ((?x86 (- p q)))
 (let ((?x92 (- a b)))
 (let ((?x84 (- r s)))
 (let ((?x94 (+ (* b b ?x86 q q ?x84 ?x84 s s s) (* ?x92 ?x92 b ?x86 ?x86 ?x86 q q q s s))))
 (let ((?x95 (* (+ (- (+ (* (- 1) q ?x84) (* ?x86 s)) ?x37) ?x41) ?x94)))
 (let ((?x81 (* a00 q00 s)))
 (let ((?x76 (* b p00 s00)))
 (let ((?x80 (+ (- (- (+ (* b q00 r00) ?x73) (* b00 q r00)) ?x76) (* a00 q s00))))
 (let ((?x69 (* a00 q00 r)))
 (let ((?x66 (* a q00 r00)))
 (let ((?x68 (+ (- (* (- 1) b00 p r00) (* a p00 s00)) ?x65 ?x66 (* a00 p s00))))
 (let (($x61 (= (+ (- (+ (* (- 1) a q) ?x55) (* b00 p00)) ?x59) 0)))
 (let (($x53 (= (+ (- (* (- 1) b r) (* a00 s00)) (* a s) ?x51) 0)))
 (let (($x44 (= (+ (- (+ (* (- 1) q r) (* p s)) ?x37) ?x41) 0)))
 (let (($x113 (and $x44 $x53 $x61 (= (- ?x68 ?x69) 0) (= (- ?x80 ?x81) 0) (or (not (= ?x95 0)) (not (= ?x109 0))))))
 (rewrite (= $x113 $x911)))))))))))))))))))))))))))))))))))))))))))))))))))))))
 ))
 (let ((@x115 (asserted $x114)))
 (let ((@x802 (mp (mp @x115 (quant-intro (proof-bind ?x992) (= $x114 $x815)) $x815) (rewrite (= $x815 $x815)) $x815)))
 (let ((@x1201 (mp (mp @x802 (quant-intro (proof-bind ?x888) (= $x815 $x526)) $x526) (quant-intro (proof-bind ?x962) (= $x526 $x957)) $x957)))
 (let ((@x277 (mp (mp~ @x1201 (sk (~ $x957 $x437)) $x437) (rewrite (= $x437 $x688)) $x688)))
 (let ((@x288 (and-elim @x277 $x650)))
 (let ((@x361 (unit-resolution ((_ th-lemma arith triangle-eq) (or (not $x650) $x548)) @x288 $x548)))
 (let (($x274 (<= ?x118 0)))
 (let ((@x615 (unit-resolution ((_ th-lemma arith triangle-eq) (or (not $x650) $x274)) @x288 $x274)))
 (let (($x602 (not (<= ?x516 0))))
 (let (($x555 (>= ?x720 0)))
 (let (($x681 (<= ?x720 0)))
 (let ((@x612 (unit-resolution ((_ th-lemma arith triangle-eq) (or $x610 (not $x681) (not $x555))) (lemma ((_ th-lemma arith farkas 1 1 1) (hypothesis (not $x681)) @x615 @x361 false) $x681) (lemma ((_ th-lemma arith farkas 1 1 1) (hypothesis (not $x555)) @x615 @x361 false) $x555) $x610)))
 (let (($x450 (>= ?x516 0)))
 (let ((@x463 (unit-resolution ((_ th-lemma arith triangle-eq) (or $x433 $x602 (not $x450))) (lemma ((_ th-lemma arith farkas 1 1 1) (hypothesis (not $x450)) @x615 @x361 false) $x450) (unit-resolution (and-elim @x277 $x496) @x612 $x517) $x602)))
 ((_ th-lemma arith farkas 1 1 1) @x463 @x615 @x361 false)))))))))))))))))))))))))))))))))))))))))))))))))))))))))))))))))))))))))))))))))))))))))))))))))))))))))))))))))))))))))))))))))))))))))))))))

(:added-eqs                 10
 :arith-assert-diseq        3
 :arith-assert-lower        19
 :arith-assert-upper        18
 :arith-conflicts           4
 :arith-eq-adapter          11
 :arith-fixed-eqs           6
 :arith-grobner             4
 :arith-max-min             680
 :arith-nonlinear-horner    42
 :arith-num-rows            11
 :arith-pivots              5
 :arith-pseudo-nonlinear    8
 :arith-row-summations      1
 :arith-tableau-max-columns 98
 :arith-tableau-max-rows    11
 :conflicts                 4
 :decisions                 7
 :del-clause                27
 :final-checks              4
 :max-memory                216.13
 :memory                    3.27
 :mk-bool-var               39
 :mk-clause                 40
 :num-allocs                11907828004255.00
 :num-checks                1
 :propagations              19
 :rlimit-count              64475733
 :time                      61.17
 :total-time                61.17)
